c *********************************
c * Circuit generated by BenCGen
c *
c * Parity_486
c *
c * Ports with 1 gate(s): 1
c * Ports with 2 gate(s): 486
c * Total gates: 487
c *********************************
p cnf 973 1945
1 489 0
-1 -489 0
1 -488 0
489 -488 0
-1 -489 488 0
1 2 -490 0
-1 2 490 0
1 -2 490 0
-1 -2 -490 0
3 4 -491 0
-3 4 491 0
3 -4 491 0
-3 -4 -491 0
5 6 -492 0
-5 6 492 0
5 -6 492 0
-5 -6 -492 0
7 8 -493 0
-7 8 493 0
7 -8 493 0
-7 -8 -493 0
9 10 -494 0
-9 10 494 0
9 -10 494 0
-9 -10 -494 0
11 12 -495 0
-11 12 495 0
11 -12 495 0
-11 -12 -495 0
13 14 -496 0
-13 14 496 0
13 -14 496 0
-13 -14 -496 0
15 16 -497 0
-15 16 497 0
15 -16 497 0
-15 -16 -497 0
17 18 -498 0
-17 18 498 0
17 -18 498 0
-17 -18 -498 0
19 20 -499 0
-19 20 499 0
19 -20 499 0
-19 -20 -499 0
21 22 -500 0
-21 22 500 0
21 -22 500 0
-21 -22 -500 0
23 24 -501 0
-23 24 501 0
23 -24 501 0
-23 -24 -501 0
25 26 -502 0
-25 26 502 0
25 -26 502 0
-25 -26 -502 0
27 28 -503 0
-27 28 503 0
27 -28 503 0
-27 -28 -503 0
29 30 -504 0
-29 30 504 0
29 -30 504 0
-29 -30 -504 0
31 32 -505 0
-31 32 505 0
31 -32 505 0
-31 -32 -505 0
33 34 -506 0
-33 34 506 0
33 -34 506 0
-33 -34 -506 0
35 36 -507 0
-35 36 507 0
35 -36 507 0
-35 -36 -507 0
37 38 -508 0
-37 38 508 0
37 -38 508 0
-37 -38 -508 0
39 40 -509 0
-39 40 509 0
39 -40 509 0
-39 -40 -509 0
41 42 -510 0
-41 42 510 0
41 -42 510 0
-41 -42 -510 0
43 44 -511 0
-43 44 511 0
43 -44 511 0
-43 -44 -511 0
45 46 -512 0
-45 46 512 0
45 -46 512 0
-45 -46 -512 0
47 48 -513 0
-47 48 513 0
47 -48 513 0
-47 -48 -513 0
49 50 -514 0
-49 50 514 0
49 -50 514 0
-49 -50 -514 0
51 52 -515 0
-51 52 515 0
51 -52 515 0
-51 -52 -515 0
53 54 -516 0
-53 54 516 0
53 -54 516 0
-53 -54 -516 0
55 56 -517 0
-55 56 517 0
55 -56 517 0
-55 -56 -517 0
57 58 -518 0
-57 58 518 0
57 -58 518 0
-57 -58 -518 0
59 60 -519 0
-59 60 519 0
59 -60 519 0
-59 -60 -519 0
61 62 -520 0
-61 62 520 0
61 -62 520 0
-61 -62 -520 0
63 64 -521 0
-63 64 521 0
63 -64 521 0
-63 -64 -521 0
65 66 -522 0
-65 66 522 0
65 -66 522 0
-65 -66 -522 0
67 68 -523 0
-67 68 523 0
67 -68 523 0
-67 -68 -523 0
69 70 -524 0
-69 70 524 0
69 -70 524 0
-69 -70 -524 0
71 72 -525 0
-71 72 525 0
71 -72 525 0
-71 -72 -525 0
73 74 -526 0
-73 74 526 0
73 -74 526 0
-73 -74 -526 0
75 76 -527 0
-75 76 527 0
75 -76 527 0
-75 -76 -527 0
77 78 -528 0
-77 78 528 0
77 -78 528 0
-77 -78 -528 0
79 80 -529 0
-79 80 529 0
79 -80 529 0
-79 -80 -529 0
81 82 -530 0
-81 82 530 0
81 -82 530 0
-81 -82 -530 0
83 84 -531 0
-83 84 531 0
83 -84 531 0
-83 -84 -531 0
85 86 -532 0
-85 86 532 0
85 -86 532 0
-85 -86 -532 0
87 88 -533 0
-87 88 533 0
87 -88 533 0
-87 -88 -533 0
89 90 -534 0
-89 90 534 0
89 -90 534 0
-89 -90 -534 0
91 92 -535 0
-91 92 535 0
91 -92 535 0
-91 -92 -535 0
93 94 -536 0
-93 94 536 0
93 -94 536 0
-93 -94 -536 0
95 96 -537 0
-95 96 537 0
95 -96 537 0
-95 -96 -537 0
97 98 -538 0
-97 98 538 0
97 -98 538 0
-97 -98 -538 0
99 100 -539 0
-99 100 539 0
99 -100 539 0
-99 -100 -539 0
101 102 -540 0
-101 102 540 0
101 -102 540 0
-101 -102 -540 0
103 104 -541 0
-103 104 541 0
103 -104 541 0
-103 -104 -541 0
105 106 -542 0
-105 106 542 0
105 -106 542 0
-105 -106 -542 0
107 108 -543 0
-107 108 543 0
107 -108 543 0
-107 -108 -543 0
109 110 -544 0
-109 110 544 0
109 -110 544 0
-109 -110 -544 0
111 112 -545 0
-111 112 545 0
111 -112 545 0
-111 -112 -545 0
113 114 -546 0
-113 114 546 0
113 -114 546 0
-113 -114 -546 0
115 116 -547 0
-115 116 547 0
115 -116 547 0
-115 -116 -547 0
117 118 -548 0
-117 118 548 0
117 -118 548 0
-117 -118 -548 0
119 120 -549 0
-119 120 549 0
119 -120 549 0
-119 -120 -549 0
121 122 -550 0
-121 122 550 0
121 -122 550 0
-121 -122 -550 0
123 124 -551 0
-123 124 551 0
123 -124 551 0
-123 -124 -551 0
125 126 -552 0
-125 126 552 0
125 -126 552 0
-125 -126 -552 0
127 128 -553 0
-127 128 553 0
127 -128 553 0
-127 -128 -553 0
129 130 -554 0
-129 130 554 0
129 -130 554 0
-129 -130 -554 0
131 132 -555 0
-131 132 555 0
131 -132 555 0
-131 -132 -555 0
133 134 -556 0
-133 134 556 0
133 -134 556 0
-133 -134 -556 0
135 136 -557 0
-135 136 557 0
135 -136 557 0
-135 -136 -557 0
137 138 -558 0
-137 138 558 0
137 -138 558 0
-137 -138 -558 0
139 140 -559 0
-139 140 559 0
139 -140 559 0
-139 -140 -559 0
141 142 -560 0
-141 142 560 0
141 -142 560 0
-141 -142 -560 0
143 144 -561 0
-143 144 561 0
143 -144 561 0
-143 -144 -561 0
145 146 -562 0
-145 146 562 0
145 -146 562 0
-145 -146 -562 0
147 148 -563 0
-147 148 563 0
147 -148 563 0
-147 -148 -563 0
149 150 -564 0
-149 150 564 0
149 -150 564 0
-149 -150 -564 0
151 152 -565 0
-151 152 565 0
151 -152 565 0
-151 -152 -565 0
153 154 -566 0
-153 154 566 0
153 -154 566 0
-153 -154 -566 0
155 156 -567 0
-155 156 567 0
155 -156 567 0
-155 -156 -567 0
157 158 -568 0
-157 158 568 0
157 -158 568 0
-157 -158 -568 0
159 160 -569 0
-159 160 569 0
159 -160 569 0
-159 -160 -569 0
161 162 -570 0
-161 162 570 0
161 -162 570 0
-161 -162 -570 0
163 164 -571 0
-163 164 571 0
163 -164 571 0
-163 -164 -571 0
165 166 -572 0
-165 166 572 0
165 -166 572 0
-165 -166 -572 0
167 168 -573 0
-167 168 573 0
167 -168 573 0
-167 -168 -573 0
169 170 -574 0
-169 170 574 0
169 -170 574 0
-169 -170 -574 0
171 172 -575 0
-171 172 575 0
171 -172 575 0
-171 -172 -575 0
173 174 -576 0
-173 174 576 0
173 -174 576 0
-173 -174 -576 0
175 176 -577 0
-175 176 577 0
175 -176 577 0
-175 -176 -577 0
177 178 -578 0
-177 178 578 0
177 -178 578 0
-177 -178 -578 0
179 180 -579 0
-179 180 579 0
179 -180 579 0
-179 -180 -579 0
181 182 -580 0
-181 182 580 0
181 -182 580 0
-181 -182 -580 0
183 184 -581 0
-183 184 581 0
183 -184 581 0
-183 -184 -581 0
185 186 -582 0
-185 186 582 0
185 -186 582 0
-185 -186 -582 0
187 188 -583 0
-187 188 583 0
187 -188 583 0
-187 -188 -583 0
189 190 -584 0
-189 190 584 0
189 -190 584 0
-189 -190 -584 0
191 192 -585 0
-191 192 585 0
191 -192 585 0
-191 -192 -585 0
193 194 -586 0
-193 194 586 0
193 -194 586 0
-193 -194 -586 0
195 196 -587 0
-195 196 587 0
195 -196 587 0
-195 -196 -587 0
197 198 -588 0
-197 198 588 0
197 -198 588 0
-197 -198 -588 0
199 200 -589 0
-199 200 589 0
199 -200 589 0
-199 -200 -589 0
201 202 -590 0
-201 202 590 0
201 -202 590 0
-201 -202 -590 0
203 204 -591 0
-203 204 591 0
203 -204 591 0
-203 -204 -591 0
205 206 -592 0
-205 206 592 0
205 -206 592 0
-205 -206 -592 0
207 208 -593 0
-207 208 593 0
207 -208 593 0
-207 -208 -593 0
209 210 -594 0
-209 210 594 0
209 -210 594 0
-209 -210 -594 0
211 212 -595 0
-211 212 595 0
211 -212 595 0
-211 -212 -595 0
213 214 -596 0
-213 214 596 0
213 -214 596 0
-213 -214 -596 0
215 216 -597 0
-215 216 597 0
215 -216 597 0
-215 -216 -597 0
217 218 -598 0
-217 218 598 0
217 -218 598 0
-217 -218 -598 0
219 220 -599 0
-219 220 599 0
219 -220 599 0
-219 -220 -599 0
221 222 -600 0
-221 222 600 0
221 -222 600 0
-221 -222 -600 0
223 224 -601 0
-223 224 601 0
223 -224 601 0
-223 -224 -601 0
225 226 -602 0
-225 226 602 0
225 -226 602 0
-225 -226 -602 0
227 228 -603 0
-227 228 603 0
227 -228 603 0
-227 -228 -603 0
229 230 -604 0
-229 230 604 0
229 -230 604 0
-229 -230 -604 0
231 232 -605 0
-231 232 605 0
231 -232 605 0
-231 -232 -605 0
233 234 -606 0
-233 234 606 0
233 -234 606 0
-233 -234 -606 0
235 236 -607 0
-235 236 607 0
235 -236 607 0
-235 -236 -607 0
237 238 -608 0
-237 238 608 0
237 -238 608 0
-237 -238 -608 0
239 240 -609 0
-239 240 609 0
239 -240 609 0
-239 -240 -609 0
241 242 -610 0
-241 242 610 0
241 -242 610 0
-241 -242 -610 0
243 244 -611 0
-243 244 611 0
243 -244 611 0
-243 -244 -611 0
245 246 -612 0
-245 246 612 0
245 -246 612 0
-245 -246 -612 0
247 248 -613 0
-247 248 613 0
247 -248 613 0
-247 -248 -613 0
249 250 -614 0
-249 250 614 0
249 -250 614 0
-249 -250 -614 0
251 252 -615 0
-251 252 615 0
251 -252 615 0
-251 -252 -615 0
253 254 -616 0
-253 254 616 0
253 -254 616 0
-253 -254 -616 0
255 256 -617 0
-255 256 617 0
255 -256 617 0
-255 -256 -617 0
257 258 -618 0
-257 258 618 0
257 -258 618 0
-257 -258 -618 0
259 260 -619 0
-259 260 619 0
259 -260 619 0
-259 -260 -619 0
261 262 -620 0
-261 262 620 0
261 -262 620 0
-261 -262 -620 0
263 264 -621 0
-263 264 621 0
263 -264 621 0
-263 -264 -621 0
265 266 -622 0
-265 266 622 0
265 -266 622 0
-265 -266 -622 0
267 268 -623 0
-267 268 623 0
267 -268 623 0
-267 -268 -623 0
269 270 -624 0
-269 270 624 0
269 -270 624 0
-269 -270 -624 0
271 272 -625 0
-271 272 625 0
271 -272 625 0
-271 -272 -625 0
273 274 -626 0
-273 274 626 0
273 -274 626 0
-273 -274 -626 0
275 276 -627 0
-275 276 627 0
275 -276 627 0
-275 -276 -627 0
277 278 -628 0
-277 278 628 0
277 -278 628 0
-277 -278 -628 0
279 280 -629 0
-279 280 629 0
279 -280 629 0
-279 -280 -629 0
281 282 -630 0
-281 282 630 0
281 -282 630 0
-281 -282 -630 0
283 284 -631 0
-283 284 631 0
283 -284 631 0
-283 -284 -631 0
285 286 -632 0
-285 286 632 0
285 -286 632 0
-285 -286 -632 0
287 288 -633 0
-287 288 633 0
287 -288 633 0
-287 -288 -633 0
289 290 -634 0
-289 290 634 0
289 -290 634 0
-289 -290 -634 0
291 292 -635 0
-291 292 635 0
291 -292 635 0
-291 -292 -635 0
293 294 -636 0
-293 294 636 0
293 -294 636 0
-293 -294 -636 0
295 296 -637 0
-295 296 637 0
295 -296 637 0
-295 -296 -637 0
297 298 -638 0
-297 298 638 0
297 -298 638 0
-297 -298 -638 0
299 300 -639 0
-299 300 639 0
299 -300 639 0
-299 -300 -639 0
301 302 -640 0
-301 302 640 0
301 -302 640 0
-301 -302 -640 0
303 304 -641 0
-303 304 641 0
303 -304 641 0
-303 -304 -641 0
305 306 -642 0
-305 306 642 0
305 -306 642 0
-305 -306 -642 0
307 308 -643 0
-307 308 643 0
307 -308 643 0
-307 -308 -643 0
309 310 -644 0
-309 310 644 0
309 -310 644 0
-309 -310 -644 0
311 312 -645 0
-311 312 645 0
311 -312 645 0
-311 -312 -645 0
313 314 -646 0
-313 314 646 0
313 -314 646 0
-313 -314 -646 0
315 316 -647 0
-315 316 647 0
315 -316 647 0
-315 -316 -647 0
317 318 -648 0
-317 318 648 0
317 -318 648 0
-317 -318 -648 0
319 320 -649 0
-319 320 649 0
319 -320 649 0
-319 -320 -649 0
321 322 -650 0
-321 322 650 0
321 -322 650 0
-321 -322 -650 0
323 324 -651 0
-323 324 651 0
323 -324 651 0
-323 -324 -651 0
325 326 -652 0
-325 326 652 0
325 -326 652 0
-325 -326 -652 0
327 328 -653 0
-327 328 653 0
327 -328 653 0
-327 -328 -653 0
329 330 -654 0
-329 330 654 0
329 -330 654 0
-329 -330 -654 0
331 332 -655 0
-331 332 655 0
331 -332 655 0
-331 -332 -655 0
333 334 -656 0
-333 334 656 0
333 -334 656 0
-333 -334 -656 0
335 336 -657 0
-335 336 657 0
335 -336 657 0
-335 -336 -657 0
337 338 -658 0
-337 338 658 0
337 -338 658 0
-337 -338 -658 0
339 340 -659 0
-339 340 659 0
339 -340 659 0
-339 -340 -659 0
341 342 -660 0
-341 342 660 0
341 -342 660 0
-341 -342 -660 0
343 344 -661 0
-343 344 661 0
343 -344 661 0
-343 -344 -661 0
345 346 -662 0
-345 346 662 0
345 -346 662 0
-345 -346 -662 0
347 348 -663 0
-347 348 663 0
347 -348 663 0
-347 -348 -663 0
349 350 -664 0
-349 350 664 0
349 -350 664 0
-349 -350 -664 0
351 352 -665 0
-351 352 665 0
351 -352 665 0
-351 -352 -665 0
353 354 -666 0
-353 354 666 0
353 -354 666 0
-353 -354 -666 0
355 356 -667 0
-355 356 667 0
355 -356 667 0
-355 -356 -667 0
357 358 -668 0
-357 358 668 0
357 -358 668 0
-357 -358 -668 0
359 360 -669 0
-359 360 669 0
359 -360 669 0
-359 -360 -669 0
361 362 -670 0
-361 362 670 0
361 -362 670 0
-361 -362 -670 0
363 364 -671 0
-363 364 671 0
363 -364 671 0
-363 -364 -671 0
365 366 -672 0
-365 366 672 0
365 -366 672 0
-365 -366 -672 0
367 368 -673 0
-367 368 673 0
367 -368 673 0
-367 -368 -673 0
369 370 -674 0
-369 370 674 0
369 -370 674 0
-369 -370 -674 0
371 372 -675 0
-371 372 675 0
371 -372 675 0
-371 -372 -675 0
373 374 -676 0
-373 374 676 0
373 -374 676 0
-373 -374 -676 0
375 376 -677 0
-375 376 677 0
375 -376 677 0
-375 -376 -677 0
377 378 -678 0
-377 378 678 0
377 -378 678 0
-377 -378 -678 0
379 380 -679 0
-379 380 679 0
379 -380 679 0
-379 -380 -679 0
381 382 -680 0
-381 382 680 0
381 -382 680 0
-381 -382 -680 0
383 384 -681 0
-383 384 681 0
383 -384 681 0
-383 -384 -681 0
385 386 -682 0
-385 386 682 0
385 -386 682 0
-385 -386 -682 0
387 388 -683 0
-387 388 683 0
387 -388 683 0
-387 -388 -683 0
389 390 -684 0
-389 390 684 0
389 -390 684 0
-389 -390 -684 0
391 392 -685 0
-391 392 685 0
391 -392 685 0
-391 -392 -685 0
393 394 -686 0
-393 394 686 0
393 -394 686 0
-393 -394 -686 0
395 396 -687 0
-395 396 687 0
395 -396 687 0
-395 -396 -687 0
397 398 -688 0
-397 398 688 0
397 -398 688 0
-397 -398 -688 0
399 400 -689 0
-399 400 689 0
399 -400 689 0
-399 -400 -689 0
401 402 -690 0
-401 402 690 0
401 -402 690 0
-401 -402 -690 0
403 404 -691 0
-403 404 691 0
403 -404 691 0
-403 -404 -691 0
405 406 -692 0
-405 406 692 0
405 -406 692 0
-405 -406 -692 0
407 408 -693 0
-407 408 693 0
407 -408 693 0
-407 -408 -693 0
409 410 -694 0
-409 410 694 0
409 -410 694 0
-409 -410 -694 0
411 412 -695 0
-411 412 695 0
411 -412 695 0
-411 -412 -695 0
413 414 -696 0
-413 414 696 0
413 -414 696 0
-413 -414 -696 0
415 416 -697 0
-415 416 697 0
415 -416 697 0
-415 -416 -697 0
417 418 -698 0
-417 418 698 0
417 -418 698 0
-417 -418 -698 0
419 420 -699 0
-419 420 699 0
419 -420 699 0
-419 -420 -699 0
421 422 -700 0
-421 422 700 0
421 -422 700 0
-421 -422 -700 0
423 424 -701 0
-423 424 701 0
423 -424 701 0
-423 -424 -701 0
425 426 -702 0
-425 426 702 0
425 -426 702 0
-425 -426 -702 0
427 428 -703 0
-427 428 703 0
427 -428 703 0
-427 -428 -703 0
429 430 -704 0
-429 430 704 0
429 -430 704 0
-429 -430 -704 0
431 432 -705 0
-431 432 705 0
431 -432 705 0
-431 -432 -705 0
433 434 -706 0
-433 434 706 0
433 -434 706 0
-433 -434 -706 0
435 436 -707 0
-435 436 707 0
435 -436 707 0
-435 -436 -707 0
437 438 -708 0
-437 438 708 0
437 -438 708 0
-437 -438 -708 0
439 440 -709 0
-439 440 709 0
439 -440 709 0
-439 -440 -709 0
441 442 -710 0
-441 442 710 0
441 -442 710 0
-441 -442 -710 0
443 444 -711 0
-443 444 711 0
443 -444 711 0
-443 -444 -711 0
445 446 -712 0
-445 446 712 0
445 -446 712 0
-445 -446 -712 0
447 448 -713 0
-447 448 713 0
447 -448 713 0
-447 -448 -713 0
449 450 -714 0
-449 450 714 0
449 -450 714 0
-449 -450 -714 0
451 452 -715 0
-451 452 715 0
451 -452 715 0
-451 -452 -715 0
453 454 -716 0
-453 454 716 0
453 -454 716 0
-453 -454 -716 0
455 456 -717 0
-455 456 717 0
455 -456 717 0
-455 -456 -717 0
457 458 -718 0
-457 458 718 0
457 -458 718 0
-457 -458 -718 0
459 460 -719 0
-459 460 719 0
459 -460 719 0
-459 -460 -719 0
461 462 -720 0
-461 462 720 0
461 -462 720 0
-461 -462 -720 0
463 464 -721 0
-463 464 721 0
463 -464 721 0
-463 -464 -721 0
465 466 -722 0
-465 466 722 0
465 -466 722 0
-465 -466 -722 0
467 468 -723 0
-467 468 723 0
467 -468 723 0
-467 -468 -723 0
469 470 -724 0
-469 470 724 0
469 -470 724 0
-469 -470 -724 0
471 472 -725 0
-471 472 725 0
471 -472 725 0
-471 -472 -725 0
473 474 -726 0
-473 474 726 0
473 -474 726 0
-473 -474 -726 0
475 476 -727 0
-475 476 727 0
475 -476 727 0
-475 -476 -727 0
477 478 -728 0
-477 478 728 0
477 -478 728 0
-477 -478 -728 0
479 480 -729 0
-479 480 729 0
479 -480 729 0
-479 -480 -729 0
481 482 -730 0
-481 482 730 0
481 -482 730 0
-481 -482 -730 0
483 484 -731 0
-483 484 731 0
483 -484 731 0
-483 -484 -731 0
485 486 -732 0
-485 486 732 0
485 -486 732 0
-485 -486 -732 0
490 491 -733 0
-490 491 733 0
490 -491 733 0
-490 -491 -733 0
492 493 -734 0
-492 493 734 0
492 -493 734 0
-492 -493 -734 0
494 495 -735 0
-494 495 735 0
494 -495 735 0
-494 -495 -735 0
496 497 -736 0
-496 497 736 0
496 -497 736 0
-496 -497 -736 0
498 499 -737 0
-498 499 737 0
498 -499 737 0
-498 -499 -737 0
500 501 -738 0
-500 501 738 0
500 -501 738 0
-500 -501 -738 0
502 503 -739 0
-502 503 739 0
502 -503 739 0
-502 -503 -739 0
504 505 -740 0
-504 505 740 0
504 -505 740 0
-504 -505 -740 0
506 507 -741 0
-506 507 741 0
506 -507 741 0
-506 -507 -741 0
508 509 -742 0
-508 509 742 0
508 -509 742 0
-508 -509 -742 0
510 511 -743 0
-510 511 743 0
510 -511 743 0
-510 -511 -743 0
512 513 -744 0
-512 513 744 0
512 -513 744 0
-512 -513 -744 0
514 515 -745 0
-514 515 745 0
514 -515 745 0
-514 -515 -745 0
516 517 -746 0
-516 517 746 0
516 -517 746 0
-516 -517 -746 0
518 519 -747 0
-518 519 747 0
518 -519 747 0
-518 -519 -747 0
520 521 -748 0
-520 521 748 0
520 -521 748 0
-520 -521 -748 0
522 523 -749 0
-522 523 749 0
522 -523 749 0
-522 -523 -749 0
524 525 -750 0
-524 525 750 0
524 -525 750 0
-524 -525 -750 0
526 527 -751 0
-526 527 751 0
526 -527 751 0
-526 -527 -751 0
528 529 -752 0
-528 529 752 0
528 -529 752 0
-528 -529 -752 0
530 531 -753 0
-530 531 753 0
530 -531 753 0
-530 -531 -753 0
532 533 -754 0
-532 533 754 0
532 -533 754 0
-532 -533 -754 0
534 535 -755 0
-534 535 755 0
534 -535 755 0
-534 -535 -755 0
536 537 -756 0
-536 537 756 0
536 -537 756 0
-536 -537 -756 0
538 539 -757 0
-538 539 757 0
538 -539 757 0
-538 -539 -757 0
540 541 -758 0
-540 541 758 0
540 -541 758 0
-540 -541 -758 0
542 543 -759 0
-542 543 759 0
542 -543 759 0
-542 -543 -759 0
544 545 -760 0
-544 545 760 0
544 -545 760 0
-544 -545 -760 0
546 547 -761 0
-546 547 761 0
546 -547 761 0
-546 -547 -761 0
548 549 -762 0
-548 549 762 0
548 -549 762 0
-548 -549 -762 0
550 551 -763 0
-550 551 763 0
550 -551 763 0
-550 -551 -763 0
552 553 -764 0
-552 553 764 0
552 -553 764 0
-552 -553 -764 0
554 555 -765 0
-554 555 765 0
554 -555 765 0
-554 -555 -765 0
556 557 -766 0
-556 557 766 0
556 -557 766 0
-556 -557 -766 0
558 559 -767 0
-558 559 767 0
558 -559 767 0
-558 -559 -767 0
560 561 -768 0
-560 561 768 0
560 -561 768 0
-560 -561 -768 0
562 563 -769 0
-562 563 769 0
562 -563 769 0
-562 -563 -769 0
564 565 -770 0
-564 565 770 0
564 -565 770 0
-564 -565 -770 0
566 567 -771 0
-566 567 771 0
566 -567 771 0
-566 -567 -771 0
568 569 -772 0
-568 569 772 0
568 -569 772 0
-568 -569 -772 0
570 571 -773 0
-570 571 773 0
570 -571 773 0
-570 -571 -773 0
572 573 -774 0
-572 573 774 0
572 -573 774 0
-572 -573 -774 0
574 575 -775 0
-574 575 775 0
574 -575 775 0
-574 -575 -775 0
576 577 -776 0
-576 577 776 0
576 -577 776 0
-576 -577 -776 0
578 579 -777 0
-578 579 777 0
578 -579 777 0
-578 -579 -777 0
580 581 -778 0
-580 581 778 0
580 -581 778 0
-580 -581 -778 0
582 583 -779 0
-582 583 779 0
582 -583 779 0
-582 -583 -779 0
584 585 -780 0
-584 585 780 0
584 -585 780 0
-584 -585 -780 0
586 587 -781 0
-586 587 781 0
586 -587 781 0
-586 -587 -781 0
588 589 -782 0
-588 589 782 0
588 -589 782 0
-588 -589 -782 0
590 591 -783 0
-590 591 783 0
590 -591 783 0
-590 -591 -783 0
592 593 -784 0
-592 593 784 0
592 -593 784 0
-592 -593 -784 0
594 595 -785 0
-594 595 785 0
594 -595 785 0
-594 -595 -785 0
596 597 -786 0
-596 597 786 0
596 -597 786 0
-596 -597 -786 0
598 599 -787 0
-598 599 787 0
598 -599 787 0
-598 -599 -787 0
600 601 -788 0
-600 601 788 0
600 -601 788 0
-600 -601 -788 0
602 603 -789 0
-602 603 789 0
602 -603 789 0
-602 -603 -789 0
604 605 -790 0
-604 605 790 0
604 -605 790 0
-604 -605 -790 0
606 607 -791 0
-606 607 791 0
606 -607 791 0
-606 -607 -791 0
608 609 -792 0
-608 609 792 0
608 -609 792 0
-608 -609 -792 0
610 611 -793 0
-610 611 793 0
610 -611 793 0
-610 -611 -793 0
612 613 -794 0
-612 613 794 0
612 -613 794 0
-612 -613 -794 0
614 615 -795 0
-614 615 795 0
614 -615 795 0
-614 -615 -795 0
616 617 -796 0
-616 617 796 0
616 -617 796 0
-616 -617 -796 0
618 619 -797 0
-618 619 797 0
618 -619 797 0
-618 -619 -797 0
620 621 -798 0
-620 621 798 0
620 -621 798 0
-620 -621 -798 0
622 623 -799 0
-622 623 799 0
622 -623 799 0
-622 -623 -799 0
624 625 -800 0
-624 625 800 0
624 -625 800 0
-624 -625 -800 0
626 627 -801 0
-626 627 801 0
626 -627 801 0
-626 -627 -801 0
628 629 -802 0
-628 629 802 0
628 -629 802 0
-628 -629 -802 0
630 631 -803 0
-630 631 803 0
630 -631 803 0
-630 -631 -803 0
632 633 -804 0
-632 633 804 0
632 -633 804 0
-632 -633 -804 0
634 635 -805 0
-634 635 805 0
634 -635 805 0
-634 -635 -805 0
636 637 -806 0
-636 637 806 0
636 -637 806 0
-636 -637 -806 0
638 639 -807 0
-638 639 807 0
638 -639 807 0
-638 -639 -807 0
640 641 -808 0
-640 641 808 0
640 -641 808 0
-640 -641 -808 0
642 643 -809 0
-642 643 809 0
642 -643 809 0
-642 -643 -809 0
644 645 -810 0
-644 645 810 0
644 -645 810 0
-644 -645 -810 0
646 647 -811 0
-646 647 811 0
646 -647 811 0
-646 -647 -811 0
648 649 -812 0
-648 649 812 0
648 -649 812 0
-648 -649 -812 0
650 651 -813 0
-650 651 813 0
650 -651 813 0
-650 -651 -813 0
652 653 -814 0
-652 653 814 0
652 -653 814 0
-652 -653 -814 0
654 655 -815 0
-654 655 815 0
654 -655 815 0
-654 -655 -815 0
656 657 -816 0
-656 657 816 0
656 -657 816 0
-656 -657 -816 0
658 659 -817 0
-658 659 817 0
658 -659 817 0
-658 -659 -817 0
660 661 -818 0
-660 661 818 0
660 -661 818 0
-660 -661 -818 0
662 663 -819 0
-662 663 819 0
662 -663 819 0
-662 -663 -819 0
664 665 -820 0
-664 665 820 0
664 -665 820 0
-664 -665 -820 0
666 667 -821 0
-666 667 821 0
666 -667 821 0
-666 -667 -821 0
668 669 -822 0
-668 669 822 0
668 -669 822 0
-668 -669 -822 0
670 671 -823 0
-670 671 823 0
670 -671 823 0
-670 -671 -823 0
672 673 -824 0
-672 673 824 0
672 -673 824 0
-672 -673 -824 0
674 675 -825 0
-674 675 825 0
674 -675 825 0
-674 -675 -825 0
676 677 -826 0
-676 677 826 0
676 -677 826 0
-676 -677 -826 0
678 679 -827 0
-678 679 827 0
678 -679 827 0
-678 -679 -827 0
680 681 -828 0
-680 681 828 0
680 -681 828 0
-680 -681 -828 0
682 683 -829 0
-682 683 829 0
682 -683 829 0
-682 -683 -829 0
684 685 -830 0
-684 685 830 0
684 -685 830 0
-684 -685 -830 0
686 687 -831 0
-686 687 831 0
686 -687 831 0
-686 -687 -831 0
688 689 -832 0
-688 689 832 0
688 -689 832 0
-688 -689 -832 0
690 691 -833 0
-690 691 833 0
690 -691 833 0
-690 -691 -833 0
692 693 -834 0
-692 693 834 0
692 -693 834 0
-692 -693 -834 0
694 695 -835 0
-694 695 835 0
694 -695 835 0
-694 -695 -835 0
696 697 -836 0
-696 697 836 0
696 -697 836 0
-696 -697 -836 0
698 699 -837 0
-698 699 837 0
698 -699 837 0
-698 -699 -837 0
700 701 -838 0
-700 701 838 0
700 -701 838 0
-700 -701 -838 0
702 703 -839 0
-702 703 839 0
702 -703 839 0
-702 -703 -839 0
704 705 -840 0
-704 705 840 0
704 -705 840 0
-704 -705 -840 0
706 707 -841 0
-706 707 841 0
706 -707 841 0
-706 -707 -841 0
708 709 -842 0
-708 709 842 0
708 -709 842 0
-708 -709 -842 0
710 711 -843 0
-710 711 843 0
710 -711 843 0
-710 -711 -843 0
712 713 -844 0
-712 713 844 0
712 -713 844 0
-712 -713 -844 0
714 715 -845 0
-714 715 845 0
714 -715 845 0
-714 -715 -845 0
716 717 -846 0
-716 717 846 0
716 -717 846 0
-716 -717 -846 0
718 719 -847 0
-718 719 847 0
718 -719 847 0
-718 -719 -847 0
720 721 -848 0
-720 721 848 0
720 -721 848 0
-720 -721 -848 0
722 723 -849 0
-722 723 849 0
722 -723 849 0
-722 -723 -849 0
724 725 -850 0
-724 725 850 0
724 -725 850 0
-724 -725 -850 0
726 727 -851 0
-726 727 851 0
726 -727 851 0
-726 -727 -851 0
728 729 -852 0
-728 729 852 0
728 -729 852 0
-728 -729 -852 0
730 731 -853 0
-730 731 853 0
730 -731 853 0
-730 -731 -853 0
733 734 -854 0
-733 734 854 0
733 -734 854 0
-733 -734 -854 0
735 736 -855 0
-735 736 855 0
735 -736 855 0
-735 -736 -855 0
737 738 -856 0
-737 738 856 0
737 -738 856 0
-737 -738 -856 0
739 740 -857 0
-739 740 857 0
739 -740 857 0
-739 -740 -857 0
741 742 -858 0
-741 742 858 0
741 -742 858 0
-741 -742 -858 0
743 744 -859 0
-743 744 859 0
743 -744 859 0
-743 -744 -859 0
745 746 -860 0
-745 746 860 0
745 -746 860 0
-745 -746 -860 0
747 748 -861 0
-747 748 861 0
747 -748 861 0
-747 -748 -861 0
749 750 -862 0
-749 750 862 0
749 -750 862 0
-749 -750 -862 0
751 752 -863 0
-751 752 863 0
751 -752 863 0
-751 -752 -863 0
753 754 -864 0
-753 754 864 0
753 -754 864 0
-753 -754 -864 0
755 756 -865 0
-755 756 865 0
755 -756 865 0
-755 -756 -865 0
757 758 -866 0
-757 758 866 0
757 -758 866 0
-757 -758 -866 0
759 760 -867 0
-759 760 867 0
759 -760 867 0
-759 -760 -867 0
761 762 -868 0
-761 762 868 0
761 -762 868 0
-761 -762 -868 0
763 764 -869 0
-763 764 869 0
763 -764 869 0
-763 -764 -869 0
765 766 -870 0
-765 766 870 0
765 -766 870 0
-765 -766 -870 0
767 768 -871 0
-767 768 871 0
767 -768 871 0
-767 -768 -871 0
769 770 -872 0
-769 770 872 0
769 -770 872 0
-769 -770 -872 0
771 772 -873 0
-771 772 873 0
771 -772 873 0
-771 -772 -873 0
773 774 -874 0
-773 774 874 0
773 -774 874 0
-773 -774 -874 0
775 776 -875 0
-775 776 875 0
775 -776 875 0
-775 -776 -875 0
777 778 -876 0
-777 778 876 0
777 -778 876 0
-777 -778 -876 0
779 780 -877 0
-779 780 877 0
779 -780 877 0
-779 -780 -877 0
781 782 -878 0
-781 782 878 0
781 -782 878 0
-781 -782 -878 0
783 784 -879 0
-783 784 879 0
783 -784 879 0
-783 -784 -879 0
785 786 -880 0
-785 786 880 0
785 -786 880 0
-785 -786 -880 0
787 788 -881 0
-787 788 881 0
787 -788 881 0
-787 -788 -881 0
789 790 -882 0
-789 790 882 0
789 -790 882 0
-789 -790 -882 0
791 792 -883 0
-791 792 883 0
791 -792 883 0
-791 -792 -883 0
793 794 -884 0
-793 794 884 0
793 -794 884 0
-793 -794 -884 0
795 796 -885 0
-795 796 885 0
795 -796 885 0
-795 -796 -885 0
797 798 -886 0
-797 798 886 0
797 -798 886 0
-797 -798 -886 0
799 800 -887 0
-799 800 887 0
799 -800 887 0
-799 -800 -887 0
801 802 -888 0
-801 802 888 0
801 -802 888 0
-801 -802 -888 0
803 804 -889 0
-803 804 889 0
803 -804 889 0
-803 -804 -889 0
805 806 -890 0
-805 806 890 0
805 -806 890 0
-805 -806 -890 0
807 808 -891 0
-807 808 891 0
807 -808 891 0
-807 -808 -891 0
809 810 -892 0
-809 810 892 0
809 -810 892 0
-809 -810 -892 0
811 812 -893 0
-811 812 893 0
811 -812 893 0
-811 -812 -893 0
813 814 -894 0
-813 814 894 0
813 -814 894 0
-813 -814 -894 0
815 816 -895 0
-815 816 895 0
815 -816 895 0
-815 -816 -895 0
817 818 -896 0
-817 818 896 0
817 -818 896 0
-817 -818 -896 0
819 820 -897 0
-819 820 897 0
819 -820 897 0
-819 -820 -897 0
821 822 -898 0
-821 822 898 0
821 -822 898 0
-821 -822 -898 0
823 824 -899 0
-823 824 899 0
823 -824 899 0
-823 -824 -899 0
825 826 -900 0
-825 826 900 0
825 -826 900 0
-825 -826 -900 0
827 828 -901 0
-827 828 901 0
827 -828 901 0
-827 -828 -901 0
829 830 -902 0
-829 830 902 0
829 -830 902 0
-829 -830 -902 0
831 832 -903 0
-831 832 903 0
831 -832 903 0
-831 -832 -903 0
833 834 -904 0
-833 834 904 0
833 -834 904 0
-833 -834 -904 0
835 836 -905 0
-835 836 905 0
835 -836 905 0
-835 -836 -905 0
837 838 -906 0
-837 838 906 0
837 -838 906 0
-837 -838 -906 0
839 840 -907 0
-839 840 907 0
839 -840 907 0
-839 -840 -907 0
841 842 -908 0
-841 842 908 0
841 -842 908 0
-841 -842 -908 0
843 844 -909 0
-843 844 909 0
843 -844 909 0
-843 -844 -909 0
845 846 -910 0
-845 846 910 0
845 -846 910 0
-845 -846 -910 0
847 848 -911 0
-847 848 911 0
847 -848 911 0
-847 -848 -911 0
849 850 -912 0
-849 850 912 0
849 -850 912 0
-849 -850 -912 0
851 852 -913 0
-851 852 913 0
851 -852 913 0
-851 -852 -913 0
853 732 -914 0
-853 732 914 0
853 -732 914 0
-853 -732 -914 0
854 855 -915 0
-854 855 915 0
854 -855 915 0
-854 -855 -915 0
856 857 -916 0
-856 857 916 0
856 -857 916 0
-856 -857 -916 0
858 859 -917 0
-858 859 917 0
858 -859 917 0
-858 -859 -917 0
860 861 -918 0
-860 861 918 0
860 -861 918 0
-860 -861 -918 0
862 863 -919 0
-862 863 919 0
862 -863 919 0
-862 -863 -919 0
864 865 -920 0
-864 865 920 0
864 -865 920 0
-864 -865 -920 0
866 867 -921 0
-866 867 921 0
866 -867 921 0
-866 -867 -921 0
868 869 -922 0
-868 869 922 0
868 -869 922 0
-868 -869 -922 0
870 871 -923 0
-870 871 923 0
870 -871 923 0
-870 -871 -923 0
872 873 -924 0
-872 873 924 0
872 -873 924 0
-872 -873 -924 0
874 875 -925 0
-874 875 925 0
874 -875 925 0
-874 -875 -925 0
876 877 -926 0
-876 877 926 0
876 -877 926 0
-876 -877 -926 0
878 879 -927 0
-878 879 927 0
878 -879 927 0
-878 -879 -927 0
880 881 -928 0
-880 881 928 0
880 -881 928 0
-880 -881 -928 0
882 883 -929 0
-882 883 929 0
882 -883 929 0
-882 -883 -929 0
884 885 -930 0
-884 885 930 0
884 -885 930 0
-884 -885 -930 0
886 887 -931 0
-886 887 931 0
886 -887 931 0
-886 -887 -931 0
888 889 -932 0
-888 889 932 0
888 -889 932 0
-888 -889 -932 0
890 891 -933 0
-890 891 933 0
890 -891 933 0
-890 -891 -933 0
892 893 -934 0
-892 893 934 0
892 -893 934 0
-892 -893 -934 0
894 895 -935 0
-894 895 935 0
894 -895 935 0
-894 -895 -935 0
896 897 -936 0
-896 897 936 0
896 -897 936 0
-896 -897 -936 0
898 899 -937 0
-898 899 937 0
898 -899 937 0
-898 -899 -937 0
900 901 -938 0
-900 901 938 0
900 -901 938 0
-900 -901 -938 0
902 903 -939 0
-902 903 939 0
902 -903 939 0
-902 -903 -939 0
904 905 -940 0
-904 905 940 0
904 -905 940 0
-904 -905 -940 0
906 907 -941 0
-906 907 941 0
906 -907 941 0
-906 -907 -941 0
908 909 -942 0
-908 909 942 0
908 -909 942 0
-908 -909 -942 0
910 911 -943 0
-910 911 943 0
910 -911 943 0
-910 -911 -943 0
912 913 -944 0
-912 913 944 0
912 -913 944 0
-912 -913 -944 0
915 916 -945 0
-915 916 945 0
915 -916 945 0
-915 -916 -945 0
917 918 -946 0
-917 918 946 0
917 -918 946 0
-917 -918 -946 0
919 920 -947 0
-919 920 947 0
919 -920 947 0
-919 -920 -947 0
921 922 -948 0
-921 922 948 0
921 -922 948 0
-921 -922 -948 0
923 924 -949 0
-923 924 949 0
923 -924 949 0
-923 -924 -949 0
925 926 -950 0
-925 926 950 0
925 -926 950 0
-925 -926 -950 0
927 928 -951 0
-927 928 951 0
927 -928 951 0
-927 -928 -951 0
929 930 -952 0
-929 930 952 0
929 -930 952 0
-929 -930 -952 0
931 932 -953 0
-931 932 953 0
931 -932 953 0
-931 -932 -953 0
933 934 -954 0
-933 934 954 0
933 -934 954 0
-933 -934 -954 0
935 936 -955 0
-935 936 955 0
935 -936 955 0
-935 -936 -955 0
937 938 -956 0
-937 938 956 0
937 -938 956 0
-937 -938 -956 0
939 940 -957 0
-939 940 957 0
939 -940 957 0
-939 -940 -957 0
941 942 -958 0
-941 942 958 0
941 -942 958 0
-941 -942 -958 0
943 944 -959 0
-943 944 959 0
943 -944 959 0
-943 -944 -959 0
945 946 -960 0
-945 946 960 0
945 -946 960 0
-945 -946 -960 0
947 948 -961 0
-947 948 961 0
947 -948 961 0
-947 -948 -961 0
949 950 -962 0
-949 950 962 0
949 -950 962 0
-949 -950 -962 0
951 952 -963 0
-951 952 963 0
951 -952 963 0
-951 -952 -963 0
953 954 -964 0
-953 954 964 0
953 -954 964 0
-953 -954 -964 0
955 956 -965 0
-955 956 965 0
955 -956 965 0
-955 -956 -965 0
957 958 -966 0
-957 958 966 0
957 -958 966 0
-957 -958 -966 0
959 914 -967 0
-959 914 967 0
959 -914 967 0
-959 -914 -967 0
960 961 -968 0
-960 961 968 0
960 -961 968 0
-960 -961 -968 0
962 963 -969 0
-962 963 969 0
962 -963 969 0
-962 -963 -969 0
964 965 -970 0
-964 965 970 0
964 -965 970 0
-964 -965 -970 0
966 967 -971 0
-966 967 971 0
966 -967 971 0
-966 -967 -971 0
968 969 -972 0
-968 969 972 0
968 -969 972 0
-968 -969 -972 0
970 971 -973 0
-970 971 973 0
970 -971 973 0
-970 -971 -973 0
972 973 -487 0
-972 973 487 0
972 -973 487 0
-972 -973 -487 0
